VERTICES = 50
EDGES = 66
47 41
39 50
12 34
47 43
27 20
17 31
49 43
38 11
28 23
36 17
29 25
1 34
1 35
5 31
38 2
50 41
34 8
10 43
11 43
42 12
40 14
45 13
36 22
18 41
31 28
48 12
47 14
44 19
34 29
16 49
28 39
2 48
47 3
2 49
20 43
30 33
42 22
17 50
45 22
14 10
39 32
35 36
29 47
29 49
2 12
5 11
12 9
40 31
14 9
6 18
37 40
21 14
15 21
38 42
43 38
46 36
47 37
3 6
19 26
5 8
7 8
1 28
2 27
7 23
28 4
8 25
